<number of tasks>
50

<cycle time>
1000

<order strength>
0.2


<task times>
1 106
2 29
3 220
4 184
5 107
6 197
7 192
8 138
9 107
10 53
11 156
12 138
13 97
14 82
15 27
16 170
17 124
18 96
19 54
20 51
21 104
22 51
23 315
24 176
25 38
26 204
27 230
28 63
29 62
30 27
31 174
32 235
33 108
34 91
35 217
36 113
37 144
38 127
39 273
40 40
41 106
42 258
43 246
44 228
45 44
46 99
47 153
48 119
49 84
50 284

<precedence relations>
1,10
1,12
2,10
2,11
2,13
4,42
8,9
9,15
9,16
9,17
10,21
11,36
12,30
12,34
12,49
13,14
14,23
14,24
15,19
16,20
16,21
16,25
17,18
17,22
18,41
19,30
20,28
21,27
21,32
21,37
22,31
23,26
24,29
25,26
25,38
28,33
28,37
28,38
29,36
30,35
32,34
32,39
32,41
34,44
35,42
35,47
36,41
36,43
36,45
37,40
39,46
40,49
41,50
47,48

<end>
